0 87 103
1 108 110
2 40 116
3 93 125
4 26 129
5 28 132
6 128 135
7 134 136
8 126 137
9 125 137
10 124 135
11 112 134
12 106 134
13 133 133
14 127 131
15 83 130
16 130 130
17 115 129
18 126 129
19 121 128
20 122 126
21 112 125
22 113 125
23 124 125
24 116 124
25 104 121
26 109 119
27 33 117
28 106 117
29 22 119
30 116 119
31 118 119
32 105 119
33 107 118
34 111 116
35 94 116
36 113 116
37 12 116
38 12 118
39 117 121
40 118 121
41 88 120
42 102 119
43 80 118
44 26 117
45 115 116
46 5 115
47 9 115
48 82 117
49 108 118
50 114 117
51 112 116
52 113 116
53 66 117
54 95 117
55 98 118
56 7 118
57 99 120
58 117 118
59 97 117
60 117 117
61 79 117
62 103 117
63 100 116
64 105 114
65 94 111
66 88 111
67 8 110
68 3 106
69 2 106
70 100 106
71 104 106
72 91 106
73 92 106
74 105 106
75 81 106
76 61 105
77 98 104
78 97 102
79 80 100
80 85 100
81 96 99
82 67 97
83 96 99
84 92 100
85 88 99
86 83 96
87 94 98
88 94 95
89 91 98
90 91 94
91 88 92
92 89 90
93 79 88
94 82 89
95 85 87
96 78 87
97 73 86
98 81 85
99 73 81
100 79 79
101 62 78
102 53 78
103 70 77
104 57 75
105 71 71
106 61 69
107 66 71
108 66 70
109 52 69
110 67 68
111 55 68
112 64 66
113 57 63
114 53 63
115 43 64
116 61 63
117 61 63
118 62 63
119 60 63
120 60 61
121 51 61
122 50 61
123 53 61
124 31 60
125 48 56
126 48 55
127 51 54
128 44 52
129 50 53
130 52 53
131 40 51
132 46 50
133 38 49
134 46 48
135 41 48
136 48 49
137 39 49
138 48 49
139 32 47
140 15 45
141 38 42
142 32 38
143 37 40
144 39 39
145 35 38
146 23 36
147 28 34
148 33 33
149 32 34
150 27 33
151 32 32
152 23 31
153 29 29
154 24 28
155 16 28
156 26 26
157 26 26
158 18 26
159 15 28
160 26 26
161 22 25
162 23 25
163 12 25
164 22 23
165 21 23
166 19 23
167 21 22
168 22 22
169 14 21
170 17 19
171 11 19
172 17 19
173 12 18
174 15 17
175 13 15
176 18 20
177 11 18
178 5 16
179 15 15
180 8 14
181 4 13
182 11 12
183 6 11
184 10 10
185 9 10
186 6 9
187 7 7
188 6 6
189 5 5
190 3 4
191 2 4
192 3 3
193 1 2
194 1 3
195 3 3
196 2 2
197 1 1

